<?xml version = "1.0" standalone="yes"?>
<!-- This file has been generated by DOcplex version 2.23.222  -->
<CPLEXSolution version="1.0">
 <header
   problemName="CVRP"
   objectiveValue="18093.8"
  />
 <variables>
  <variable name="x_0_1" index="0" value="1.00000"/>
  <variable name="x_0_2" index="1" value="1.00000"/>
  <variable name="x_0_3" index="2" value="1.00000"/>
  <variable name="x_0_4" index="3" value="1.00000"/>
  <variable name="x_0_5" index="4" value="1.00000"/>
  <variable name="x_0_7" index="6" value="1.00000"/>
  <variable name="x_0_8" index="7" value="1.00000"/>
  <variable name="x_0_9" index="8" value="1.00000"/>
  <variable name="x_0_10" index="9" value="1.00000"/>
  <variable name="x_0_11" index="10" value="1.00000"/>
  <variable name="x_0_12" index="11" value="1.00000"/>
  <variable name="x_0_13" index="12" value="1.00000"/>
  <variable name="x_0_14" index="13" value="1.00000"/>
  <variable name="x_0_15" index="14" value="1.00000"/>
  <variable name="x_0_16" index="15" value="1.00000"/>
  <variable name="x_0_19" index="18" value="1.00000"/>
  <variable name="x_0_20" index="19" value="1.00000"/>
  <variable name="x_0_27" index="26" value="1.00000"/>
  <variable name="x_1_25" index="52" value="1.00000"/>
  <variable name="x_2_0" index="56" value="1.00000"/>
  <variable name="x_3_0" index="84" value="1.00000"/>
  <variable name="x_4_26" index="137" value="1.00000"/>
  <variable name="x_5_17" index="156" value="1.00000"/>
  <variable name="x_6_0" index="168" value="1.00000"/>
  <variable name="x_7_0" index="196" value="1.00000"/>
  <variable name="x_8_0" index="224" value="1.00000"/>
  <variable name="x_9_21" index="272" value="1.00000"/>
  <variable name="x_10_0" index="280" value="1.00000"/>
  <variable name="x_11_24" index="331" value="1.00000"/>
  <variable name="x_12_0" index="336" value="1.00000"/>
  <variable name="x_13_0" index="364" value="1.00000"/>
  <variable name="x_14_28" index="419" value="1.00000"/>
  <variable name="x_15_18" index="437" value="1.00000"/>
  <variable name="x_16_0" index="448" value="1.00000"/>
  <variable name="x_17_0" index="476" value="1.00000"/>
  <variable name="x_18_22" index="525" value="1.00000"/>
  <variable name="x_19_0" index="532" value="1.00000"/>
  <variable name="x_20_0" index="560" value="1.00000"/>
  <variable name="x_21_0" index="588" value="1.00000"/>
  <variable name="x_22_0" index="616" value="1.00000"/>
  <variable name="x_23_0" index="644" value="1.00000"/>
  <variable name="x_24_0" index="672" value="1.00000"/>
  <variable name="x_25_6" index="706" value="1.00000"/>
  <variable name="x_26_0" index="728" value="1.00000"/>
  <variable name="x_27_23" index="779" value="1.00000"/>
  <variable name="x_28_0" index="784" value="1.00000"/>
  <variable name="u_1" index="812" value="41.00000"/>
  <variable name="u_2" index="813" value="65.00000"/>
  <variable name="u_3" index="814" value="55.00000"/>
  <variable name="u_4" index="815" value="46.00000"/>
  <variable name="u_5" index="816" value="11.00000"/>
  <variable name="u_6" index="817" value="66.00000"/>
  <variable name="u_7" index="818" value="53.00000"/>
  <variable name="u_8" index="819" value="53.00000"/>
  <variable name="u_9" index="820" value="51.00000"/>
  <variable name="u_10" index="821" value="66.00000"/>
  <variable name="u_11" index="822" value="28.00000"/>
  <variable name="u_12" index="823" value="37.00000"/>
  <variable name="u_13" index="824" value="57.00000"/>
  <variable name="u_14" index="825" value="52.00000"/>
  <variable name="u_15" index="826" value="34.00000"/>
  <variable name="u_16" index="827" value="66.00000"/>
  <variable name="u_17" index="828" value="66.00000"/>
  <variable name="u_18" index="829" value="42.00000"/>
  <variable name="u_19" index="830" value="61.00000"/>
  <variable name="u_20" index="831" value="60.00000"/>
  <variable name="u_21" index="832" value="54.00000"/>
  <variable name="u_22" index="833" value="66.00000"/>
  <variable name="u_23" index="834" value="66.00000"/>
  <variable name="u_24" index="835" value="58.00000"/>
  <variable name="u_25" index="836" value="58.00000"/>
  <variable name="u_26" index="837" value="66.00000"/>
  <variable name="u_27" index="838" value="47.00000"/>
  <variable name="u_28" index="839" value="55.00000"/>
 </variables>
</CPLEXSolution>
